words_train/words_872_SAT.qaiger
aag 71 24 0 1 47
2
38
24
32
8
26
30
4
28
14
34
20
6
42
46
36
10
44
22
48
12
18
40
16
142
50 31 15
52 30 14
54 53 51
56 21 4
58 20 5
60 59 57
62 29 13
64 28 12
66 65 63
68 33 17
70 32 16
72 71 69
74 23 7
76 22 6
78 77 75
80 79 73
82 80 67
84 82 60
86 84 55
88 87 49
90 78 72
92 90 66
94 92 54
96 94 61
98 97 48
100 46 19
102 47 18
104 103 101
106 104 2
108 105 3
110 109 107
112 48 27
114 49 26
116 115 113
118 116 10
120 117 11
122 121 119
124 122 110
126 49 9
128 48 8
130 129 127
132 130 25
134 131 24
136 135 133
138 136 124
140 138 99
142 140 89
i0 2 y[0]
i1 2 z[2]
i2 1 x[3]
i3 1 x[7]
i4 2 y[3]
i5 1 x[4]
i6 1 x[6]
i7 2 y[1]
i8 1 x[5]
i9 2 y[6]
i10 2 z[0]
i11 1 x[1]
i12 2 y[2]
i13 2 z[4]
i14 2 z[6]
i15 2 z[1]
i16 2 y[4]
i17 2 z[5]
i18 1 x[2]
i19 2 z[7]
i20 2 y[5]
i21 1 x[0]
i22 2 z[3]
i23 2 y[7]
o0 bool[0]
c
simplified
  ==
    and
      2 y
      unary minus
        1
    xor
      1 x
      >> 6
        2 z
