words_train/words_872_SAT.qaiger.qdimacs
p cnf 71 142
a 9 10 11 12 13 14 15 16 0
e 1 2 3 4 5 6 7 8 17 18 19 20 21 22 23 24 25 26 27 28 29 30 31 32 33 34 35 36 37 38 39 40 41 42 43 44 45 46 47 48 49 50 51 52 53 54 55 56 57 58 59 60 61 62 63 64 65 66 67 68 69 70 71 0
15 7 25 0
-15 -25 0
-7 -25 0
-15 -7 26 0
15 -26 0
7 -26 0
26 25 27 0
-26 -27 0
-25 -27 0
10 -2 28 0
-10 -28 0
2 -28 0
-10 2 29 0
10 -29 0
-2 -29 0
29 28 30 0
-29 -30 0
-28 -30 0
14 6 31 0
-14 -31 0
-6 -31 0
-14 -6 32 0
14 -32 0
6 -32 0
32 31 33 0
-32 -33 0
-31 -33 0
16 8 34 0
-16 -34 0
-8 -34 0
-16 -8 35 0
16 -35 0
8 -35 0
35 34 36 0
-35 -36 0
-34 -36 0
11 3 37 0
-11 -37 0
-3 -37 0
-11 -3 38 0
11 -38 0
3 -38 0
38 37 39 0
-38 -39 0
-37 -39 0
39 36 40 0
-39 -40 0
-36 -40 0
-40 33 41 0
40 -41 0
-33 -41 0
-41 -30 42 0
41 -42 0
30 -42 0
-42 27 43 0
42 -43 0
-27 -43 0
43 24 44 0
-43 -44 0
-24 -44 0
-39 -36 45 0
39 -45 0
36 -45 0
-45 -33 46 0
45 -46 0
33 -46 0
-46 -27 47 0
46 -47 0
27 -47 0
-47 30 48 0
47 -48 0
-30 -48 0
48 -24 49 0
-48 -49 0
24 -49 0
-23 9 50 0
23 -50 0
-9 -50 0
23 -9 51 0
-23 -51 0
9 -51 0
51 50 52 0
-51 -52 0
-50 -52 0
-52 -1 53 0
52 -53 0
1 -53 0
52 1 54 0
-52 -54 0
-1 -54 0
54 53 55 0
-54 -55 0
-53 -55 0
-24 13 56 0
24 -56 0
-13 -56 0
24 -13 57 0
-24 -57 0
13 -57 0
57 56 58 0
-57 -58 0
-56 -58 0
-58 -5 59 0
58 -59 0
5 -59 0
58 5 60 0
-58 -60 0
-5 -60 0
60 59 61 0
-60 -61 0
-59 -61 0
-61 -55 62 0
61 -62 0
55 -62 0
24 4 63 0
-24 -63 0
-4 -63 0
-24 -4 64 0
24 -64 0
4 -64 0
64 63 65 0
-64 -65 0
-63 -65 0
-65 12 66 0
65 -66 0
-12 -66 0
65 -12 67 0
-65 -67 0
12 -67 0
67 66 68 0
-67 -68 0
-66 -68 0
-68 -62 69 0
68 -69 0
62 -69 0
-69 49 70 0
69 -70 0
-49 -70 0
-70 44 71 0
70 -71 0
-44 -71 0
71 0
